Solver command line: ['C:\\Program Files\\IBM\\ILOG\\CPLEX_Studio2211\\cplex\\bin\\x64_win64\\cplex.exe']


Welcome to IBM(R) ILOG(R) CPLEX(R) Interactive Optimizer 22.1.1.0
  with Simplex, Mixed Integer & Barrier Optimizers
5725-A06 5725-A29 5724-Y48 5724-Y49 5724-Y54 5724-Y55 5655-Y21
Copyright IBM Corp. 1988, 2022.  All Rights Reserved.

Type 'help' for a list of available commands.
Type 'help' followed by a command name for more
information on commands.

CPLEX> Logfile 'cplex.log' closed.
Logfile 'C:\Users\wangy\Documents\GitHub\re_optimization\result_site_specific\tmp888gjqbw.cplex.log' open.
CPLEX> Problem 'C:\Users\wangy\Documents\GitHub\re_optimization\result_site_specific\tmpb3h6t80d.pyomo.lp' read.
Read time = 0.27 sec. (7.29 ticks)
CPLEX> Problem name         : C:\Users\wangy\Documents\GitHub\re_optimization\result_site_specific\tmpb3h6t80d.pyomo.lp
Objective sense      : Minimize
Variables            :   52617  [Nneg: 27764,  Free: 8786,  Binary: 7,
                                 Other: 16060]
Objective nonzeros   :      14
Linear constraints   :   73052  [Less: 39437,  Greater: 3,  Equal: 33612]
  Nonzeros           :  181252
  RHS nonzeros       :    4015

Variables            : Min LB: 0.000000         Max UB: 1.000000       
Objective nonzeros   : Min   : 1.000000         Max   : 1.000000       
Linear constraints   :
  Nonzeros           : Min   : 0.002275001      Max   : 100000.0       
  RHS nonzeros       : Min   : 0.005000000      Max   : 1000.000       
CPLEX> Version identifier: 22.1.1.0 | 2022-11-27 | 9160aff4d
Tried aggregator 3 times.
MIP Presolve eliminated 47907 rows and 28928 columns.
Aggregator did 7405 substitutions.
Reduced MIP has 17740 rows, 16284 columns, and 51480 nonzeros.
Reduced MIP has 5 binaries, 0 generals, 0 SOSs, and 0 indicators.
Presolve time = 0.16 sec. (152.72 ticks)
Found incumbent of value 165275.927332 after 0.19 sec. (177.77 ticks)
Probing time = 0.00 sec. (0.99 ticks)
Tried aggregator 1 time.
Detecting symmetries...
Reduced MIP has 17740 rows, 16284 columns, and 51480 nonzeros.
Reduced MIP has 5 binaries, 0 generals, 0 SOSs, and 0 indicators.
Presolve time = 0.03 sec. (30.48 ticks)
Probing time = 0.00 sec. (0.89 ticks)
MIP emphasis: balance optimality and feasibility.
MIP search method: dynamic search.
Parallel mode: deterministic, using up to 16 threads.
Root relaxation solution time = 0.81 sec. (545.36 ticks)

        Nodes                                         Cuts/
   Node  Left     Objective  IInf  Best Integer    Best Bound    ItCnt     Gap

*     0+    0                       165275.9273    -8110.2389           104.91%
*     0+    0                         5549.8738    -8110.2389           246.13%
      0     0     5544.7240     1     5549.8738     5544.7240       61    0.09%
*     0+    0                         5549.8109     5544.7240             0.09%
      0     0        cutoff           5549.8109                     89    0.00%
Elapsed time = 1.23 sec. (861.00 ticks, tree = 0.01 MB, solutions = 3)

Root node processing (before b&c):
  Real time             =    1.25 sec. (863.50 ticks)
Parallel b&c, 16 threads:
  Real time             =    0.00 sec. (0.00 ticks)
  Sync time (average)   =    0.00 sec.
  Wait time (average)   =    0.00 sec.
                          ------------
Total (root+branch&cut) =    1.25 sec. (863.50 ticks)

Solution pool: 3 solutions saved.

MIP - Integer optimal solution:  Objective =  5.5498108916e+03
Solution time =    1.25 sec.  Iterations = 89  Nodes = 0
Deterministic time = 863.65 ticks  (690.92 ticks/sec)

CPLEX> Incumbent solution written to file 'C:\Users\wangy\Documents\GitHub\re_optimization\result_site_specific\tmpx4_0s4ca.cplex.sol'.
CPLEX> 
